NAME: PROBLEM_DIR1.txt
COMMENT:
TYPE: TSP
DIMENSION: 19
EDGE_WEIGHT_TYPE: GEO
NODE_COORD_SECTION:
1 4.6159623 -74.0817843
2 4.6219217 -74.0889773
3 4.587016 -74.1021389
4 4.6153793 -74.1208453
5 4.6227618 -74.1051019
6 4.6256776 -74.1214457
7 4.6277379 -74.1205728
8 4.5917713 -74.0979892
9 4.6058502 -74.0781564
10 4.6184212 -74.1031646
11 4.6132618 -74.1355807
12 4.6251965 -74.1230965
13 4.6141746 -74.140716
14 4.610485 -74.1365191
15 4.6391644 -74.1599738
16 4.6153139 -74.1394251
17 4.6154709 -74.1442033
18 4.6162301 -74.1436317
19 4.6155295 -74.1463906
EOF
